NAME: random_instance_file
TYPE: TSP
COMMENT: COMMENT
DIMENSION: 15
EDGE_WEIGHT_TYPE: EXPLICIT
EDGE_WEIGHT_FORMAT: LOWER_DIAG_ROW 
DISPLAY_DATA_TYPE: TWOD_DISPLAY 
EDGE_WEIGHT_SECTION
0 60.0 
0.0 
72.0 
28.0 
0.0 
33.0 
27.0 
43.0 
0.0 
19.0 
50.0 
69.0 
26.0 
0.0 
93.0 
50.0 
23.0 
66.0 
91.0 
0.0 
69.0 
54.0 
33.0 
53.0 
75.0 
35.0 
0.0 
47.0 
44.0 
70.0 
35.0 
29.0 
93.0 
87.0 
0.0 
84.0 
50.0 
22.0 
60.0 
85.0 
13.0 
22.0 
90.0 
0.0 
92.0 
40.0 
20.0 
62.0 
87.0 
17.0 
47.0 
84.0 
27.0 
0.0 
52.0 
16.0 
22.0 
21.0 
47.0 
45.0 
40.0 
50.0 
40.0 
40.0 
0.0 
38.0 
25.0 
35.0 
9.0 
34.0 
57.0 
44.0 
43.0 
51.0 
55.0 
14.0 
0.0 
32.0 
43.0 
65.0 
24.0 
13.0 
88.0 
77.0 
16.0 
83.0 
82.0 
44.0 
33.0 
0.0 
23.0 
39.0 
49.0 
14.0 
25.0 
70.0 
50.0 
44.0 
61.0 
69.0 
29.0 
15.0 
30.0 
0.0 
37.0 
40.0 
65.0 
25.0 
18.0 
88.0 
78.0 
11.0 
83.0 
80.0 
43.0 
34.0 
5.0 
33.0 
0.0 
EOF
